Data path: /scratch/opt/lxu/CFLG/benchmarks/Kgroup_A
Instance: K100.5.con.red
Result path: /scratch/opt/lxu/CFLG/results/Kgroup_A
Solver: Gurobi
Time limit: 3600
Formulation: LEFPV
Cover: Large
julia --project=. src/main.jl /scratch/opt/lxu/CFLG/benchmarks/Kgroup_A K100.5.con.red /scratch/opt/lxu/CFLG/results/Kgroup_A Gurobi 3600 LEFPV Large
The latest version of Julia in the `release` channel is 1.11.5+0.x64.linux.gnu. You currently have `1.11.4+0.x64.linux.gnu` installed. Run:

  juliaup update

in your terminal shell to install Julia 1.11.5+0.x64.linux.gnu and update the `release` channel to that version.
/scratch/opt/lxu/CFLG/benchmarks/Kgroup_A Gurobi 3600.0 /scratch/opt/lxu/CFLG/results/Kgroup_A K100.5.con.red LEFPV Large
/scratch/opt/lxu/CFLG/benchmarks/Kgroup_A/K100.5.con.red

 read graph
data loaded


after absorb:31 31

max_piece:4
problem_graph/original graph: node: 37/31 edge: 126/120 dlt: 0.3835273439484856 break_avg_len: 0.18263206854689806 break_max_len: 1.0Set parameter TokenServer to value "solice01.zib.de"
Set parameter Threads to value 1
Set parameter OutputFlag to value 1
Gurobi Optimizer version 12.0.1 build v12.0.1rc0 (linux64 - "Debian GNU/Linux 12 (bookworm)")

CPU model: Intel(R) Xeon(R) Gold 5122 CPU @ 3.60GHz, instruction set [SSE2|AVX|AVX2|AVX512]
Thread count: 8 physical cores, 16 logical processors, using up to 1 threads

Non-default parameters:
Threads  1

Optimize a model with 163 rows, 378 columns and 630 nonzeros
Model fingerprint: 0x655b4e62
Coefficient statistics:
  Matrix range     [1e+00, 1e+00]
  Objective range  [1e+00, 1e+00]
  Bounds range     [1e+00, 1e+00]
  RHS range        [0e+00, 0e+00]
Presolve removed 163 rows and 378 columns
Presolve time: 0.00s
Presolve: All rows and columns removed
Iteration    Objective       Primal Inf.    Dual Inf.      Time
       0   -0.0000000e+00   0.000000e+00   0.000000e+00      0s

Solved in 0 iterations and 0.00 seconds (0.00 work units)
Optimal objective -0.000000000e+00

User-callback calls 36, time in user-callback 0.01 sec
elapsed CPU time: 1.364095 seconds
Set parameter TokenServer to value "solice01.zib.de"
Set parameter Threads to value 1
Set parameter OutputFlag to value 1
Set parameter MIPGap to value 0.0001
Set parameter MIPGapAbs to value 1
Set parameter TimeLimit to value 3598.635905

 more cuts:falsefalse
0 0
formulation:LEFPV1 125 35
Set parameter PreCrush to value 1

 model loaded

Gurobi Optimizer version 12.0.1 build v12.0.1rc0 (linux64 - "Debian GNU/Linux 12 (bookworm)")

CPU model: Intel(R) Xeon(R) Gold 5122 CPU @ 3.60GHz, instruction set [SSE2|AVX|AVX2|AVX512]
Thread count: 8 physical cores, 16 logical processors, using up to 1 threads

Non-default parameters:
TimeLimit  3598.635905
MIPGapAbs  1
PreCrush  1
Threads  1

Optimize a model with 9258 rows, 4699 columns and 27430 nonzeros
Model fingerprint: 0xb512ae81
Variable types: 289 continuous, 4410 integer (4410 binary)
Coefficient statistics:
  Matrix range     [1e-06, 1e+00]
  Objective range  [1e+00, 1e+00]
  Bounds range     [2e-02, 1e+00]
  RHS range        [1e-02, 1e+01]
Presolve removed 2221 rows and 291 columns
Presolve time: 0.09s
Presolved: 7037 rows, 4408 columns, 24205 nonzeros
Variable types: 164 continuous, 4244 integer (4244 binary)
Found heuristic solution: objective 126.0000000
Found heuristic solution: objective 70.0000000

Root relaxation: objective 2.085927e+00, 3224 iterations, 0.09 seconds (0.17 work units)

    Nodes    |    Current Node    |     Objective Bounds      |     Work
 Expl Unexpl |  Obj  Depth IntInf | Incumbent    BestBd   Gap | It/Node Time

     0     0    2.08593    0  159   70.00000    2.08593  97.0%     -    0s
H    0     0                      61.0000000    2.08593  96.6%     -    0s
H    0     0                      22.0000000    2.08593  90.5%     -    0s
H    0     0                      21.0000000    2.08593  90.1%     -    0s
H    0     0                      14.0000000    2.08593  85.1%     -    0s
H    0     0                      13.0000000    2.08593  84.0%     -    0s
H    0     0                      11.0000000    2.08593  81.0%     -    0s
H    0     0                      10.0000000    2.08593  79.1%     -    0s
     0     0    3.23172    0  277   10.00000    3.23172  67.7%     -    0s
H    0     0                       9.0000000    3.29452  63.4%     -    0s
     0     0    3.29452    0  318    9.00000    3.29452  63.4%     -    1s
     0     0    3.29452    0  318    9.00000    3.29452  63.4%     -    1s
     0     0    3.81043    0  262    9.00000    3.81043  57.7%     -    1s
     0     0    3.81157    0  262    9.00000    3.81157  57.6%     -    1s
     0     0    3.81157    0  263    9.00000    3.81157  57.6%     -    1s
     0     0    4.10956    0  214    9.00000    4.10956  54.3%     -    1s
H    0     0                       8.0000000    4.11786  48.5%     -    1s
H    0     0                       7.0000000    4.11786  41.2%     -    1s
     0     0    4.18423    0  257    7.00000    4.18423  40.2%     -    1s
     0     0    4.20909    0  272    7.00000    4.20909  39.9%     -    1s
     0     0    4.21263    0  302    7.00000    4.21263  39.8%     -    1s
     0     0    4.21263    0  303    7.00000    4.21263  39.8%     -    1s
     0     0    4.58132    0  342    7.00000    4.58132  34.6%     -    1s
     0     0    4.61325    0  332    7.00000    4.61325  34.1%     -    1s
     0     0    4.61567    0  365    7.00000    4.61567  34.1%     -    1s
     0     0    4.61567    0  365    7.00000    4.61567  34.1%     -    1s
     0     0    4.61870    0  384    7.00000    4.61870  34.0%     -    1s
     0     0    4.63009    0  406    7.00000    4.63009  33.9%     -    1s
     0     0    4.63009    0  403    7.00000    4.63009  33.9%     -    2s
     0     0    4.63323    0  403    7.00000    4.63323  33.8%     -    2s
     0     0    4.65624    0  307    7.00000    4.65624  33.5%     -    2s
     0     2    4.65624    0  307    7.00000    4.65624  33.5%     -    2s
   293   207    5.50925   11   97    7.00000    4.94444  29.4%  96.2    5s
   700   414    6.00000   49  307    7.00000    5.05882  27.7%  81.5   12s
   710   421    5.29950    7  420    7.00000    5.05882  27.7%  80.3   15s
   728   433    5.50000   14  295    7.00000    5.15093  26.4%  78.3   20s
   793   439    5.38845   16  286    7.00000    5.18709  25.9%   176   25s
   942   404    5.75215   23  263    7.00000    5.38845  23.0%   177   30s
  1039   376    5.60656   17  309    7.00000    5.46998  21.9%   177   35s
  1274   295    5.96296   24  230    7.00000    5.71227  18.4%   175   40s

Cutting planes:
  Cover: 29
  Implied bound: 5
  MIR: 36
  StrongCG: 7
  Flow cover: 182
  GUB cover: 39
  Zero half: 23
  RLT: 20
  Relax-and-lift: 2
  BQP: 4

Explored 1397 nodes (260516 simplex iterations) in 41.63 seconds (45.63 work units)
Thread count was 1 (of 16 available processors)

Solution count 10: 7 7 8 ... 14

Optimal solution found (tolerance 1.00e-04)
Best objective 7.000000000000e+00, best bound 6.000000000000e+00, gap 14.2857%

User-callback calls 13994, time in user-callback 0.82 sec

 sepatime0
7.0Stat(MathOptInterface.OPTIMAL, 7.0, 6.000000000000001, 0.14285714285714274, 0.0, 1.364095, 41.62891888618469, 1397, Main.CFLG.LEFPV, "", #undef)
